WARNING: for repeatability, setting FPU to use double precision
============================[ Problem Statistics ]=============================
|                                                                             |
|  Number of variables:            50                                         |
|  Number of clauses:             218                                         |
|  Parse time:                   0.00 s                                       |
|                                                                             |
============================[ Search Statistics ]==============================
| Conflicts |          ORIGINAL         |          LEARNT          | Progress |
|           |    Vars  Clauses Literals |    Limit  Clauses Lit/Cl |          |
===============================================================================
===============================================================================
restarts              : 1
conflicts             : 39             (309524 /sec)
decisions             : 50             (0.00 % random) (396825 /sec)
propagations          : 487            (3865079 /sec)
conflict literals     : 119            (18.49 % deleted)
Memory used           : 20.00 MB
CPU time              : 0.000126 s

UNSATISFIABLE
